GLPSOL--GLPK LP/MIP Solver 5.0
Parameter(s) specified in the command line:
 --lp ../modeles/20_149.lp --log 20_149.log
Reading problem data from '../modeles/20_149.lp'...
3061 rows, 6000 columns, 20960 non-zeros
2980 integer variables, all of which are binary
9087 lines were read
GLPK Integer Optimizer 5.0
3061 rows, 6000 columns, 20960 non-zeros
2980 integer variables, all of which are binary
Preprocessing...
2920 constraint coefficient(s) were reduced
3061 rows, 5980 columns, 20940 non-zeros
2980 integer variables, all of which are binary
Scaling...
 A: min|aij| =  1.802e-04  max|aij| =  4.000e+00  ratio =  2.220e+04
GM: min|aij| =  8.192e-02  max|aij| =  1.221e+01  ratio =  1.490e+02
EQ: min|aij| =  6.711e-03  max|aij| =  1.000e+00  ratio =  1.490e+02
2N: min|aij| =  3.906e-03  max|aij| =  1.741e+00  ratio =  4.456e+02
Constructing initial basis...
Size of triangular part is 3061
Solving LP relaxation...
GLPK Simplex Optimizer 5.0
3061 rows, 5980 columns, 20940 non-zeros
      0: obj =   4.000000000e+01 inf =   1.142e+03 (41)
Perturbing LP to avoid stalling [199]...
    259: obj =   4.982207207e-01 inf =   0.000e+00 (0)
Removing LP perturbation [658]...
*   658: obj =  -4.467386745e+00 inf =   4.558e-14 (0) 1
OPTIMAL LP SOLUTION FOUND
Integer optimization begins...
Long-step dual simplex will be used
+   658: mip =     not found yet >=              -inf        (1; 0)
+  1178: >>>>>  -4.467386745e+00 >=  -4.467386745e+00 < 0.1% (516; 0)
+  1178: mip =  -4.467386745e+00 >=     tree is empty   0.0% (0; 1031)
INTEGER OPTIMAL SOLUTION FOUND
Time used:   2.9 secs
Memory used: 8.7 Mb (9127214 bytes)
